58
 1 928 16
 2 472 8
 3 660 11
 4 122 2
 5 806 13
 6 441 7
 7 512 8
 8 975 15
 9 1122 17
 10 670 10
 11 884 13
 12 552 8
 13 1400 20
 14 142 2
 15 288 4
 16 1460 20
 17 1332 18
 18 975 13
 19 684 9
 20 1232 16
 21 390 5
 22 1264 16
 23 480 6
 24 891 11
 25 410 5
 26 581 7
 27 1428 17
 28 850 10
 29 172 2
 30 609 7
 31 704 8
 32 1424 16
 33 180 2
 34 1183 13
 35 1196 13
 36 1674 18
 37 1504 16
 38 190 2
 39 1344 14
 40 776 8
 41 1372 14
 42 1188 12
 43 100 1
 44 404 4
 45 1428 14
 46 515 5
 47 1560 15
 48 1575 15
 49 424 4
 50 1819 17
 51 540 5
 52 2071 19
 53 1760 16
 54 1776 16
 55 1792 16
 56 1243 11
 57 1824 16
 58 1495 13
1160